sat
(:elim-unconstrained           1
 :max-memory                   18.43
 :memory                       18.43
 :nlsat-arith-var              2
 :nlsat-atoms                  5
 :nlsat-bool-var               1
 :nlsat-clauses                5
 :nlsat-irrational-assignments 1
 :nlsat-propagations           5
 :nlsat-stages                 3
 :num-allocs                   42336
 :rlimit-count                 1197
 :solve-eqs-elim-vars          2
 :solve-eqs-steps              5
 :time                         0.00
 :total-time                   0.01)
